(set-info :Origin "This instance was generated by: BanditFuzz-- an RL fuzzer for SMT solvers" )
(set-info :Author "Joe Scott, Fed Mora, Vijay Ganesh" )
(set-info :Contact "Joe Scott, joseph.scott@uwaterloo.ca")
(set-logic QF_BV)
(declare-const bool_0 Bool)
(declare-const bool_1 Bool)
(declare-const bool_2 Bool)
(declare-const bool_3 Bool)
(declare-const bool_4 Bool)
(declare-const bv_0 (_ BitVec 32))
(declare-const bv_1 (_ BitVec 32))
(declare-const bv_2 (_ BitVec 32))
(declare-const bv_3 (_ BitVec 32))
(declare-const bv_4 (_ BitVec 32))
(assert (bvsge (bvsub (bvurem bv_1 #x7b0a7df3 ) (bvnor bv_3 #x61781234 )) (bvnand (bvsub bv_3 #x911ff8fb ) (bvsdiv #x7bb2e971  #x8e6719db ))))
(assert (=> (bvugt (bvlshr bv_0 #xa6812307 ) (bvsub #x01ce6db0  bv_1)) (bvugt (bvand #x04156eb3  bv_3) (bvnand bv_1 bv_3))))
(assert (bvult (bvsdiv (bvsdiv #x31efde56  bv_0) (bvsub bv_1 bv_2)) (bvashr (bvurem bv_4 bv_1) (bvsub bv_2 bv_0))))
(assert (bvult (bvsrem (bvlshr #x28d42814  #x32a82042 ) (bvor bv_4 #xe8eb45fa )) (bvor (bvurem #x8258341d  bv_3) (bvudiv bv_0 bv_0))))
(assert (xor (bvult (bvsdiv bv_0 bv_2) (bvsub bv_0 #x7c8a8db0 )) (bvule (bvxnor #xe8760f1a  #x23baa3c7 ) (bvsdiv #x1d5bcdf2  #x7ea0f576 ))))
(check-sat)
(exit)
